<number of tasks>
50

<cycle time>
1000

<order strength>
0.596


<task times>
1 107
2 552
3 160
4 329
5 102
6 107
7 67
8 238
9 202
10 479
11 140
12 494
13 303
14 164
15 550
16 41
17 245
18 29
19 138
20 204
21 208
22 62
23 74
24 588
25 236
26 183
27 181
28 319
29 117
30 260
31 225
32 194
33 448
34 521
35 34
36 79
37 417
38 236
39 79
40 178
41 39
42 169
43 139
44 346
45 405
46 75
47 34
48 252
49 105
50 238

<precedence relations>
1,13
2,13
3,32
4,10
4,11
4,12
5,6
5,7
6,13
7,8
7,9
7,10
7,11
7,12
8,13
9,13
10,13
11,13
11,14
11,15
11,16
11,17
11,18
11,19
12,13
12,14
12,15
12,16
12,17
12,18
12,19
13,20
13,21
13,22
13,23
13,24
13,25
14,31
15,31
16,31
17,32
18,32
19,25
19,27
20,27
20,29
21,26
21,28
21,29
21,30
22,26
23,29
23,33
23,46
24,26
24,34
25,30
26,31
27,32
28,32
29,34
30,33
30,34
30,45
30,46
31,35
31,36
31,37
31,38
31,45
32,39
32,40
32,41
32,42
32,44
33,43
36,43
36,44
38,47
38,48
39,47
40,43
40,45
40,48
41,43
41,45
41,46
42,45
42,47
43,47
44,46
46,48
46,49
47,49
47,50

<end>
